true true true
presolving:
presolving (0 rounds: 0 fast, 0 medium, 0 exhaustive):
 0 deleted vars, 0 deleted constraints, 0 added constraints, 0 tightened bounds, 0 added holes, 0 changed sides, 0 changed coefficients
 0 implications, 0 cliques
presolved problem has 30 variables (30 bin, 0 int, 0 impl, 0 cont) and 24 constraints
     24 constraints of type <linear>
transformed objective value is always integral (scale: 1)
Presolving Time: 0.00

 time | node  | left  |LP iter|LP it/n|mem/heur|mdpt |vars |cons |rows |cuts |sepa|confs|strbr|  dualbound   | primalbound  |  gap   | compl. 
p 0.0s|     1 |     0 |     0 |     - |shiftand|   0 |  30 |  24 |  24 |   0 |  0 |   0 |   0 |      --      | 6.000000e+00 |    Inf | unknown
 time | node  | left  |LP iter|LP it/n|mem/heur|mdpt |vars |cons |rows |cuts |sepa|confs|strbr|  dualbound   | primalbound  |  gap   | compl. 
  0.0s|     1 |     0 |    15 |     - |  1387k |   0 | 284 |  24 |  24 |   0 |  0 |   0 |   0 |-3.900000e+01 | 6.000000e+00 |    Inf | unknown
 time | node  | left  |LP iter|LP it/n|mem/heur|mdpt |vars |cons |rows |cuts |sepa|confs|strbr|  dualbound   | primalbound  |  gap   | compl. 
  0.2s|     1 |     0 |   155 |     - |  3271k |   0 | 850 |  24 |  24 |   0 |  0 |   0 |   0 | 5.000000e+00 | 6.000000e+00 |  20.00%| unknown
 time | node  | left  |LP iter|LP it/n|mem/heur|mdpt |vars |cons |rows |cuts |sepa|confs|strbr|  dualbound   | primalbound  |  gap   | compl. 
  0.3s|     1 |     2 |   524 |     - |  3468k |   0 | 850 |  24 |  24 |   0 |  1 |   0 |   0 | 5.000000e+00 | 6.000000e+00 |  20.00%| unknown
 time | node  | left  |LP iter|LP it/n|mem/heur|mdpt |vars |cons |rows |cuts |sepa|confs|strbr|  dualbound   | primalbound  |  gap   | compl. 
  0.3s|     2 |     3 |   533 |   9.0 |  3537k |   1 | 850 |  24 |  24 |   0 |  1 |   0 |   0 | 5.000000e+00 | 6.000000e+00 |  20.00%| unknown
 time | node  | left  |LP iter|LP it/n|mem/heur|mdpt |vars |cons |rows |cuts |sepa|confs|strbr|  dualbound   | primalbound  |  gap   | compl. 
  0.3s|     3 |     4 |   541 |   8.5 |  3845k |   1 | 850 |  24 |  24 |   0 |  1 |   0 |   0 | 5.000000e+00 | 6.000000e+00 |  20.00%| unknown
 time | node  | left  |LP iter|LP it/n|mem/heur|mdpt |vars |cons |rows |cuts |sepa|confs|strbr|  dualbound   | primalbound  |  gap   | compl. 
  0.3s|     4 |     5 |   548 |   8.0 |  3863k |   2 | 850 |  24 |  24 |   0 |  1 |   0 |   0 | 5.000000e+00 | 6.000000e+00 |  20.00%| unknown
 time | node  | left  |LP iter|LP it/n|mem/heur|mdpt |vars |cons |rows |cuts |sepa|confs|strbr|  dualbound   | primalbound  |  gap   | compl. 
  0.3s|     5 |     6 |   554 |   7.5 |  3865k |   2 | 850 |  24 |  24 |   0 |  1 |   0 |   0 | 5.000000e+00 | 6.000000e+00 |  20.00%| unknown
 time | node  | left  |LP iter|LP it/n|mem/heur|mdpt |vars |cons |rows |cuts |sepa|confs|strbr|  dualbound   | primalbound  |  gap   | compl. 
  0.4s|     6 |     7 |   556 |   6.4 |  3869k |   3 | 850 |  24 |  24 |   0 |  1 |   0 |   0 | 5.000000e+00 | 6.000000e+00 |  20.00%| unknown
 time | node  | left  |LP iter|LP it/n|mem/heur|mdpt |vars |cons |rows |cuts |sepa|confs|strbr|  dualbound   | primalbound  |  gap   | compl. 
  0.4s|     7 |     8 |   560 |   6.0 |  3870k |   4 | 850 |  24 |  24 |   0 |  1 |   0 |   0 | 5.000000e+00 | 6.000000e+00 |  20.00%| unknown
 time | node  | left  |LP iter|LP it/n|mem/heur|mdpt |vars |cons |rows |cuts |sepa|confs|strbr|  dualbound   | primalbound  |  gap   | compl. 
  0.4s|     8 |     9 |   567 |   6.1 |  3871k |   5 | 850 |  24 |  24 |   0 |  1 |   0 |   0 | 5.000000e+00 | 6.000000e+00 |  20.00%| unknown
 time | node  | left  |LP iter|LP it/n|mem/heur|mdpt |vars |cons |rows |cuts |sepa|confs|strbr|  dualbound   | primalbound  |  gap   | compl. 
  0.4s|     9 |    10 |   584 |   7.5 |  3872k |   5 | 850 |  24 |  24 |   0 |  1 |   0 |   0 | 5.000000e+00 | 6.000000e+00 |  20.00%| unknown
 time | node  | left  |LP iter|LP it/n|mem/heur|mdpt |vars |cons |rows |cuts |sepa|confs|strbr|  dualbound   | primalbound  |  gap   | compl. 
  0.5s|    10 |    11 |   588 |   7.1 |  3894k |   6 | 850 |  24 |  24 |   0 |  1 |   0 |   0 | 5.000000e+00 | 6.000000e+00 |  20.00%| unknown
 time | node  | left  |LP iter|LP it/n|mem/heur|mdpt |vars |cons |rows |cuts |sepa|confs|strbr|  dualbound   | primalbound  |  gap   | compl. 
r 0.5s|    11 |     0 |   598 |   7.4 |simplero|   7 | 850 |  24 |  24 |   0 |  0 |   0 |   0 | 5.000000e+00 | 5.000000e+00 |   0.00%|  99.71%

SCIP Status        : problem is solved [optimal solution found]
Solving Time (sec) : 0.48
Solving Nodes      : 11
Primal Bound       : +5.00000000000000e+00 (2 solutions)
Dual Bound         : +5.00000000000000e+00
Gap                : 0.00 %
Running with parallel: True bidir: True symbreak: True
Number of Nodes:  24
45.78269675925926% holds
starting cheapest insertion heuristic
Heuristic without TSP improvement:  6
Heuristic without TSP improvement time:  0.1
Heuristic Sol:  6
Heuristic total time:  0.1
[[0, 20, 19, 2, 8, 10, 21, 9], [15, 13, 6, 14, 17, 3, 5], [7, 12, 1, 4], [16, 18, 11], [23], [22]]
Instance path:  /home/htc/mghannam/SCRATCH/lccp-rust/data/t62_gr24.npcc
Timelimit:  7200
Heuristic without TSP improvement:  6
Heuristic without TSP improvement time:  0.1
Heuristic Sol:  6
Heuristic total time:  0.1
at 1 zero_duals: 18
Switching to elementary pricing
at1, LP obj: 6.0 n_added_paths: 254
updated lowerbound from -1e+20 to -39
at 1 zero_duals: 18
at1, LP obj: 6.0 n_added_paths: 46
at 1 zero_duals: 11
at1, LP obj: 6.0 n_added_paths: 271
at 1 zero_duals: 5
Switching to elementary pricing
at1, LP obj: 5.097402597402597 n_added_paths: 180
at 1 zero_duals: 3
Switching to elementary pricing
at1, LP obj: 4.62 n_added_paths: 69
updated lowerbound from 1.0 to 3
at 1 zero_duals: 11
Switching to elementary pricing
at1, LP obj: 4.428571428571429 n_added_paths: 0
updated lowerbound from 3.0 to 5
Gap too small = 0, stopping pricing with lb = 5
Gap too small = 0, stopping pricing with lb = 5
Gap too small = 0, stopping pricing with lb = 5
Gap too small = 0, stopping pricing with lb = 5
Gap too small = 0, stopping pricing with lb = 5
Gap too small = 0, stopping pricing with lb = 5
Gap too small = 0, stopping pricing with lb = 5
Gap too small = 0, stopping pricing with lb = 5
Gap too small = 0, stopping pricing with lb = 5
Gap too small = 0, stopping pricing with lb = 5
Best solution found:
[20, 16, 11, 0, 9, 20] 1.0 1.0
checking cycle [20, 16, 11, 0, 9, 20]
[20, 16, 11, 0, 9, 20] 357 250
[22, 12, 1, 22] 1.0 1.0
checking cycle [22, 12, 1, 22]
[22, 12, 1, 22] 335 174
[23, 21, 18, 23] 1.0 1.0
checking cycle [23, 21, 18, 23]
[23, 21, 18, 23] 216 194
[19, 10, 8, 15, 5, 2, 19] 1.0 1.0
checking cycle [19, 10, 8, 15, 5, 2, 19]
[19, 10, 8, 15, 5, 2, 19] 375 358
[17, 4, 14, 6, 7, 13, 3, 17] 1.0 1.0
checking cycle [17, 4, 14, 6, 7, 13, 3, 17]
[17, 4, 14, 6, 7, 13, 3, 17] 419 386
